--- Job TestLoop.gms Start 05/11/21 15:35:25 32.2.0 rc62c018 WEX-WEI x86 64bit/MS Windows
--- Applying:
    C:\GAMS\32\gmsprmNT.txt
--- GAMS Parameters defined
    Input C:\Users\charl\OneDrive\Dokumente\6.Semester\Bachelor-Arbeit\bachelor-thesis\LR_code_for_CharlotteRitter\TestLoop.gms
    PageSize 0
    ScrDir C:\Users\charl\OneDrive\Dokumente\6.Semester\Bachelor-Arbeit\bachelor-thesis\LR_code_for_CharlotteRitter\225c\
    SysDir C:\GAMS\32\
    LogOption 3
    ErrMsg 1
    ErrorLog 99
    IDE 1
    LstTitleLeftAligned 1
GAMS 32.2.0   Copyright (C) 1987-2020 GAMS Development. All rights reserved
Licensee: Small MUD - 5 User License                     S200323/0001AN-GEN
          Friedrich-Alexander-Universitaet Erlangen-Nurnberg         DC7699
          C:\GAMS\32\gamslice.txt
--- Starting compilation
--- TestLoop.gms(19) 2 Mb
--- . inputME.gms(14) 3 Mb
--- .. solar_scenarios_1200.csv(1201) 4 Mb
--- . inputME.gms(91) 4 Mb
--- .. scenario_sorted_1200_01.csv(1201) 4 Mb
--- . inputME.gms(116) 4 Mb
--- .. battery_revenue.csv(25) 4 Mb
--- . inputME.gms(185) 4 Mb
--- TestLoop.gms(20) 4 Mb
--- . subgradient_parameters.gms(33) 4 Mb
--- TestLoop.gms(22) 4 Mb
--- . equations_all.gms(76) 4 Mb
--- TestLoop.gms(23) 4 Mb
--- . lp_lowerbound.gms(12) 4 Mb
--- TestLoop.gms(24) 4 Mb
--- . heuristic_upperbound.gms(59) 4 Mb
--- TestLoop.gms(96) 4 Mb
--- . plain_lr.gms(12) 4 Mb
--- TestLoop.gms(102) 4 Mb
--- . LR_updatesMe.gms(17) 4 Mb
--- .. stepsize.gms(24) 4 Mb
--- . LR_updatesMe.gms(42) 4 Mb
--- TestLoop.gms(129) 4 Mb
--- Starting execution: elapsed 0:00:00.180
--- TestLoop.gms(2747) 11 Mb
--- Generating RMIP model schedule
--- TestLoop.gms(2694) 11 Mb
--- Starting Equ Objective: elapsed 0:00:00.317
--- TestLoop.gms(2696) 15 Mb
--- Starting Equ Const1: elapsed 0:00:00.701
--- TestLoop.gms(2702) 31 Mb
--- Starting Equ Const_chance_1: elapsed 0:00:00.743
--- TestLoop.gms(2709) 41 Mb
--- Starting Equ Const_chance_2: elapsed 0:00:00.791
--- TestLoop.gms(2748) 41 Mb
---   56,402 rows  87,625 columns  255,625 non-zeroes
---   1,200 discrete-columns
--- Executing CPLEX (Solvelink=2): elapsed 0:00:00.954

IBM ILOG CPLEX   32.2.0 rc62c018 Released Aug 26, 2020 WEI x86 64bit/MS Window
--- GAMS/Cplex Link licensed for continuous and discrete problems.
Cplex 12.10.0.0

Reading data...
Starting Cplex...
Space for names approximately 3.60 Mb
Use option 'names no' to turn use of names off
Version identifier: 12.10.0.0 | 2019-11-26 | 843d4de2ae
CPXPARAM_Advance                                 0
CPXPARAM_Threads                                 8
CPXPARAM_Parallel                                1
CPXPARAM_TimeLimit                               2100
CPXPARAM_Tune_TimeLimit                          420
Parallel mode: deterministic, using up to 8 threads for concurrent optimization:
 * Starting dual Simplex on 1 thread...
 * Starting Barrier on 6 threads...
 * Starting primal Simplex on 1 thread...
Tried aggregator 1 time.
LP Presolve eliminated 1 rows and 3601 columns.
Reduced LP has 56401 rows, 84024 columns, and 223200 nonzeros.
Presolve time = 0.36 sec. (100.71 ticks)
Initializing dual steep norms . . .

Iteration log . . .
Iteration:     1   Dual objective     =          -813.687217
Iteration:  1061   Dual objective     =          -799.764954
Iteration:  1950   Dual objective     =          -776.558554
LP status(13): user aborted
Cplex Time: 1.12sec (det. 341.23 ticks)

Solution aborted due to user request.
--- Reading solution for model schedule
--- Executing after solve: elapsed 0:00:02.512
--- TestLoop.gms(2770) 41 Mb
--- Generating MIP model schedule_scenario
--- TestLoop.gms(2714) 41 Mb
--- Starting Equ Objective_scenario: elapsed 0:00:02.512
--- TestLoop.gms(2698) 41 Mb
--- Starting Equ Const1_scenario: elapsed 0:00:02.512
--- TestLoop.gms(2703) 41 Mb
--- Starting Equ Const_chance_1_scenario: elapsed 0:00:02.516
--- TestLoop.gms(2773) 41 Mb
--- LOOPS rs = scen1
---   48 rows  97 columns  213 non-zeroes
--- Executing CPLEX (Solvelink=5): elapsed 0:00:02.523

IBM ILOG CPLEX   32.2.0 rc62c018 Released Aug 26, 2020 WEI x86 64bit/MS Window
--- GAMS/Cplex Link licensed for continuous and discrete problems.
Cplex 12.10.0.0

Reading data...
Starting Cplex...
Space for names approximately 0.00 Mb
Use option 'names no' to turn use of names off
Version identifier: 12.10.0.0 | 2019-11-26 | 843d4de2ae
CPXPARAM_Advance                                 0
CPXPARAM_Threads                                 8
CPXPARAM_Parallel                                1
CPXPARAM_TimeLimit                               2100
CPXPARAM_Tune_TimeLimit                          420
Tried aggregator 1 time.
LP Presolve eliminated 11 rows and 14 columns.
Reduced LP has 37 rows, 83 columns, and 133 nonzeros.
Presolve time = 0.00 sec. (0.07 ticks)
Initializing dual steep norms . . .

Iteration log . . .
Iteration:     1   Dual infeasibility =             0.218332
Iteration:     8   Dual objective     =          -336.788034
LP status(1): optimal
Cplex Time: 0.00sec (det. 0.16 ticks)

Optimal solution found.
Objective :        -305.040489

--- Reading solution for model schedule_scenario
--- Executing after solve: elapsed 0:00:02.541
--- TestLoop.gms(2770) 41 Mb
--- Generating MIP model schedule_scenario
--- TestLoop.gms(2714) 41 Mb
--- Starting Equ Objective_scenario: elapsed 0:00:02.541
--- TestLoop.gms(2698) 41 Mb
--- Starting Equ Const1_scenario: elapsed 0:00:02.542
--- TestLoop.gms(2703) 41 Mb
--- Starting Equ Const_chance_1_scenario: elapsed 0:00:02.548
--- TestLoop.gms(2773) 41 Mb
--- LOOPS rs = scen2
---   48 rows  97 columns  213 non-zeroes
--- Executing CPLEX (Solvelink=5): elapsed 0:00:02.553

IBM ILOG CPLEX   32.2.0 rc62c018 Released Aug 26, 2020 WEI x86 64bit/MS Window
--- GAMS/Cplex Link licensed for continuous and discrete problems.
Cplex 12.10.0.0

Reading data...
Starting Cplex...
Space for names approximately 0.00 Mb
Use option 'names no' to turn use of names off
Version identifier: 12.10.0.0 | 2019-11-26 | 843d4de2ae
CPXPARAM_Advance                                 0
CPXPARAM_Threads                                 8
CPXPARAM_Parallel                                1
CPXPARAM_TimeLimit                               2100
CPXPARAM_Tune_TimeLimit                          420
Tried aggregator 1 time.
LP Presolve eliminated 10 rows and 13 columns.
Reduced LP has 38 rows, 84 columns, and 136 nonzeros.
Presolve time = 0.00 sec. (0.07 ticks)
Initializing dual steep norms . . .

Iteration log . . .
Iteration:     1   Dual infeasibility =             0.285410
Iteration:     8   Dual objective     =          -337.874043
LP status(1): optimal
Cplex Time: 0.00sec (det. 0.15 ticks)

Optimal solution found.
Objective :        -305.880095

--- Reading solution for model schedule_scenario
--- Executing after solve: elapsed 0:00:02.567
--- TestLoop.gms(2770) 41 Mb
--- Generating MIP model schedule_scenario
--- TestLoop.gms(2714) 41 Mb
--- Starting Equ Objective_scenario: elapsed 0:00:02.568
--- TestLoop.gms(2698) 41 Mb
--- Starting Equ Const1_scenario: elapsed 0:00:02.568
--- TestLoop.gms(2703) 41 Mb
--- Starting Equ Const_chance_1_scenario: elapsed 0:00:02.572
--- TestLoop.gms(2773) 41 Mb
--- LOOPS rs = scen3
---   48 rows  97 columns  213 non-zeroes
--- Executing CPLEX (Solvelink=5): elapsed 0:00:02.577

IBM ILOG CPLEX   32.2.0 rc62c018 Released Aug 26, 2020 WEI x86 64bit/MS Window
--- GAMS/Cplex Link licensed for continuous and discrete problems.
Cplex 12.10.0.0

Reading data...
Starting Cplex...
Space for names approximately 0.00 Mb
Use option 'names no' to turn use of names off
Version identifier: 12.10.0.0 | 2019-11-26 | 843d4de2ae
CPXPARAM_Advance                                 0
CPXPARAM_Threads                                 8
CPXPARAM_Parallel                                1
CPXPARAM_TimeLimit                               2100
CPXPARAM_Tune_TimeLimit                          420
Tried aggregator 1 time.
LP Presolve eliminated 10 rows and 13 columns.
Reduced LP has 38 rows, 84 columns, and 136 nonzeros.
Presolve time = 0.00 sec. (0.07 ticks)
Initializing dual steep norms . . .

Iteration log . . .
Iteration:     1   Dual infeasibility =             0.285410
Iteration:     8   Dual objective     =          -332.451336
LP status(1): optimal
Cplex Time: 0.00sec (det. 0.15 ticks)

Optimal solution found.
Objective :        -300.464642

--- Reading solution for model schedule_scenario
--- Executing after solve: elapsed 0:00:02.591
--- TestLoop.gms(2770) 41 Mb
--- Generating MIP model schedule_scenario
--- TestLoop.gms(2714) 41 Mb
--- Starting Equ Objective_scenario: elapsed 0:00:02.591
--- TestLoop.gms(2698) 41 Mb
--- Starting Equ Const1_scenario: elapsed 0:00:02.591
--- TestLoop.gms(2703) 41 Mb
--- Starting Equ Const_chance_1_scenario: elapsed 0:00:02.595
--- TestLoop.gms(2773) 41 Mb
--- LOOPS rs = scen4
---   48 rows  97 columns  213 non-zeroes
--- Executing CPLEX (Solvelink=5): elapsed 0:00:02.600

IBM ILOG CPLEX   32.2.0 rc62c018 Released Aug 26, 2020 WEI x86 64bit/MS Window
--- GAMS/Cplex Link licensed for continuous and discrete problems.
Cplex 12.10.0.0

Reading data...
Starting Cplex...
Space for names approximately 0.00 Mb
Use option 'names no' to turn use of names off
Version identifier: 12.10.0.0 | 2019-11-26 | 843d4de2ae
CPXPARAM_Advance                                 0
CPXPARAM_Threads                                 8
CPXPARAM_Parallel                                1
CPXPARAM_TimeLimit                               2100
CPXPARAM_Tune_TimeLimit                          420
Tried aggregator 1 time.
LP Presolve eliminated 10 rows and 13 columns.
Reduced LP has 38 rows, 84 columns, and 136 nonzeros.
Presolve time = 0.00 sec. (0.07 ticks)
Initializing dual steep norms . . .

Iteration log . . .
Iteration:     1   Dual infeasibility =             0.285410
Iteration:     8   Dual objective     =          -330.993087
LP status(1): optimal
Cplex Time: 0.00sec (det. 0.15 ticks)

Optimal solution found.
Objective :        -299.026214

--- Reading solution for model schedule_scenario
--- Executing after solve: elapsed 0:00:02.615
--- TestLoop.gms(2770) 41 Mb
*** Error at line 2773: Execution halted: Triggered by pending CtrlC event
--- TestLoop.gms(2770) 41 Mb 1 Error
--- Profile Summary (1050 records processed)
     1.516   0.041GB      2748 Solve Alg  schedule
     0.391   0.015GB      2694 Equation   Objective (1)
     0.156   0.041GB      2748 Solve Fini schedule (255625)
     0.094   0.005GB      2617 Loop       
     0.047   0.041GB      2702 Equation   Const_chance_1 (28800)
     0.047   0.031GB      2696 Equation   Const1 (27600)
     0.046   0.041GB      2748 Solve Read schedule
     0.016   0.041GB      2773 Solve Fini schedule_scenario (213)
     0.016   0.041GB      2773 Solve Read schedule_scenario
     0.016   0.005GB      2608 Assignment dummysolar (16236)
--- TestLoop.gms(2770) 41 Mb 1 Error
*** Status: Execution error(s)
--- Job TestLoop.gms Stop 05/11/21 15:35:28 elapsed 0:00:02.618
